(set-logic UFLIRA)
(declare-fun Measure (Int Bool Int Bool Int) Bool)
(declare-fun DressingAbandoned_27_presence () Bool)
(declare-fun Measure_13_presence () Bool)
(declare-fun DressingStarted_41_presence () Bool)
(declare-fun Measure_14_presence () Bool)
(declare-fun SupportCalled_26_presence () Bool)
(declare-fun RefuseRequest (Int) Bool)
(declare-fun RefuseRequest_19_presence () Bool)
(declare-fun DressingStarted (Int) Bool)
(declare-fun SupportCalled (Int) Bool)
(declare-fun RetryAgreed (Int) Bool)
(declare-fun CurtainOpenRqt_24_presence () Bool)
(declare-fun CurtainOpenRqt (Int) Bool)
(declare-fun UserFallen (Int) Bool)
(declare-fun Measure_12_presence () Bool)
(declare-fun DressingAbandoned (Int) Bool)
(declare-fun CurtainsOpened (Int) Bool)
(declare-fun DressingComplete_24_presence () Bool)
(declare-fun RetryAgreed_33_presence () Bool)
(declare-fun DressingComplete (Int) Bool)
(declare-fun UserFallen_29_presence () Bool)
(declare-fun CurtainsOpened_19_presence () Bool)
(assert (let ((.def_0 (forall ((Measure_14_time Int)(Measure_14_userUnderDressed Bool)(Measure_14_roomTemperature Int)(Measure_14_assentToSupportCalls Bool)(Measure_14_userDistressed Int)) (let ((.def_0 (<= 0 Measure_14_time))) (let ((.def_1 (and .def_0 true true true true))) (let ((.def_2 (=> Measure_14_presence .def_1))) (let ((.def_3 (Measure Measure_14_time Measure_14_userUnderDressed Measure_14_roomTemperature Measure_14_assentToSupportCalls Measure_14_userDistressed))) (let ((.def_4 (not .def_3))) (let ((.def_5 (or .def_4 .def_2))) .def_5)))))))))(let ((.def_1 (forall ((RetryAgreed_33_time Int)) (let ((.def_0 (<= 0 RetryAgreed_33_time))) (let ((.def_1 (=> RetryAgreed_33_presence .def_0))) (let ((.def_2 (RetryAgreed RetryAgreed_33_time))) (let ((.def_3 (not .def_2))) (let ((.def_4 (or .def_3 .def_1))) .def_4))))))))(let ((.def_2 (forall ((SupportCalled_26_time Int)) (let ((.def_0 (<= 0 SupportCalled_26_time))) (let ((.def_1 (=> SupportCalled_26_presence .def_0))) (let ((.def_2 (SupportCalled SupportCalled_26_time))) (let ((.def_3 (not .def_2))) (let ((.def_4 (or .def_3 .def_1))) .def_4))))))))(let ((.def_3 (forall ((UserFallen_29_time Int)) (let ((.def_0 (<= 0 UserFallen_29_time))) (let ((.def_1 (=> UserFallen_29_presence .def_0))) (let ((.def_2 (UserFallen UserFallen_29_time))) (let ((.def_3 (not .def_2))) (let ((.def_4 (or .def_3 .def_1))) .def_4))))))))(let ((.def_4 (forall ((RefuseRequest_19_time Int)) (let ((.def_0 (<= 0 RefuseRequest_19_time))) (let ((.def_1 (=> RefuseRequest_19_presence .def_0))) (let ((.def_2 (RefuseRequest RefuseRequest_19_time))) (let ((.def_3 (not .def_2))) (let ((.def_4 (or .def_3 .def_1))) .def_4))))))))(let ((.def_5 (forall ((CurtainsOpened_19_time Int)) (let ((.def_0 (<= 0 CurtainsOpened_19_time))) (let ((.def_1 (=> CurtainsOpened_19_presence .def_0))) (let ((.def_2 (CurtainsOpened CurtainsOpened_19_time))) (let ((.def_3 (not .def_2))) (let ((.def_4 (or .def_3 .def_1))) .def_4))))))))(let ((.def_6 (forall ((CurtainOpenRqt_24_time Int)) (let ((.def_0 (<= 0 CurtainOpenRqt_24_time))) (let ((.def_1 (=> CurtainOpenRqt_24_presence .def_0))) (let ((.def_2 (CurtainOpenRqt CurtainOpenRqt_24_time))) (let ((.def_3 (not .def_2))) (let ((.def_4 (or .def_3 .def_1))) .def_4))))))))(let ((.def_7 (forall ((DressingAbandoned_27_time Int)) (let ((.def_0 (<= 0 DressingAbandoned_27_time))) (let ((.def_1 (=> DressingAbandoned_27_presence .def_0))) (let ((.def_2 (DressingAbandoned DressingAbandoned_27_time))) (let ((.def_3 (not .def_2))) (let ((.def_4 (or .def_3 .def_1))) .def_4))))))))(let ((.def_8 (forall ((DressingComplete_24_time Int)) (let ((.def_0 (<= 0 DressingComplete_24_time))) (let ((.def_1 (=> DressingComplete_24_presence .def_0))) (let ((.def_2 (DressingComplete DressingComplete_24_time))) (let ((.def_3 (not .def_2))) (let ((.def_4 (or .def_3 .def_1))) .def_4))))))))(let ((.def_9 (forall ((DressingStarted_41_time Int)) (let ((.def_0 (<= 0 DressingStarted_41_time))) (let ((.def_1 (=> DressingStarted_41_presence .def_0))) (let ((.def_2 (DressingStarted DressingStarted_41_time))) (let ((.def_3 (not .def_2))) (let ((.def_4 (or .def_3 .def_1))) .def_4))))))))(let ((.def_10 (exists ((t_RetryAgreed_15_time Int)) (let ((.def_0 (forall ((RetryAgreed_32_time Int)) (let ((.def_0 (<= RetryAgreed_32_time t_RetryAgreed_15_time))) (let ((.def_1 (RetryAgreed RetryAgreed_32_time))) (let ((.def_2 (not .def_1))) (let ((.def_3 (or .def_2 .def_0))) .def_3)))))))(let ((.def_1 (RetryAgreed t_RetryAgreed_15_time))) (let ((.def_2 (and .def_1 .def_0))) .def_2))))))(let ((.def_11 (exists ((t_RetryAgreed_14_time Int)) (let ((.def_0 (forall ((RetryAgreed_31_time Int)) (let ((.def_0 (<= t_RetryAgreed_14_time RetryAgreed_31_time))) (let ((.def_1 (RetryAgreed RetryAgreed_31_time))) (let ((.def_2 (not .def_1))) (let ((.def_3 (or .def_2 .def_0))) .def_3)))))))(let ((.def_1 (RetryAgreed t_RetryAgreed_14_time))) (let ((.def_2 (and .def_1 .def_0))) .def_2))))))(let ((.def_12 (and .def_11 .def_10))) (let ((.def_13 (forall ((RetryAgreed_30_time Int)) (let ((.def_0 (not true))) (let ((.def_1 (RetryAgreed RetryAgreed_30_time))) (let ((.def_2 (not .def_1))) (let ((.def_3 (or .def_2 .def_0))) .def_3)))))))(let ((.def_14 (or .def_13 .def_12))) (let ((.def_15 (exists ((t_SupportCalled_32_time Int)) (let ((.def_0 (forall ((SupportCalled_25_time Int)) (let ((.def_0 (<= SupportCalled_25_time t_SupportCalled_32_time))) (let ((.def_1 (SupportCalled SupportCalled_25_time))) (let ((.def_2 (not .def_1))) (let ((.def_3 (or .def_2 .def_0))) .def_3)))))))(let ((.def_1 (SupportCalled t_SupportCalled_32_time))) (let ((.def_2 (and .def_1 .def_0))) .def_2))))))(let ((.def_16 (exists ((t_SupportCalled_31_time Int)) (let ((.def_0 (forall ((SupportCalled_24_time Int)) (let ((.def_0 (<= t_SupportCalled_31_time SupportCalled_24_time))) (let ((.def_1 (SupportCalled SupportCalled_24_time))) (let ((.def_2 (not .def_1))) (let ((.def_3 (or .def_2 .def_0))) .def_3)))))))(let ((.def_1 (SupportCalled t_SupportCalled_31_time))) (let ((.def_2 (and .def_1 .def_0))) .def_2))))))(let ((.def_17 (and .def_16 .def_15))) (let ((.def_18 (forall ((SupportCalled_23_time Int)) (let ((.def_0 (not true))) (let ((.def_1 (SupportCalled SupportCalled_23_time))) (let ((.def_2 (not .def_1))) (let ((.def_3 (or .def_2 .def_0))) .def_3)))))))(let ((.def_19 (or .def_18 .def_17))) (let ((.def_20 (exists ((t_UserFallen_9_time Int)) (let ((.def_0 (forall ((UserFallen_28_time Int)) (let ((.def_0 (<= UserFallen_28_time t_UserFallen_9_time))) (let ((.def_1 (UserFallen UserFallen_28_time))) (let ((.def_2 (not .def_1))) (let ((.def_3 (or .def_2 .def_0))) .def_3)))))))(let ((.def_1 (UserFallen t_UserFallen_9_time))) (let ((.def_2 (and .def_1 .def_0))) .def_2))))))(let ((.def_21 (exists ((t_UserFallen_8_time Int)) (let ((.def_0 (forall ((UserFallen_27_time Int)) (let ((.def_0 (<= t_UserFallen_8_time UserFallen_27_time))) (let ((.def_1 (UserFallen UserFallen_27_time))) (let ((.def_2 (not .def_1))) (let ((.def_3 (or .def_2 .def_0))) .def_3)))))))(let ((.def_1 (UserFallen t_UserFallen_8_time))) (let ((.def_2 (and .def_1 .def_0))) .def_2))))))(let ((.def_22 (and .def_21 .def_20))) (let ((.def_23 (forall ((UserFallen_26_time Int)) (let ((.def_0 (not true))) (let ((.def_1 (UserFallen UserFallen_26_time))) (let ((.def_2 (not .def_1))) (let ((.def_3 (or .def_2 .def_0))) .def_3)))))))(let ((.def_24 (or .def_23 .def_22))) (let ((.def_25 (exists ((t_RefuseRequest_14_time Int)) (let ((.def_0 (forall ((RefuseRequest_18_time Int)) (let ((.def_0 (<= RefuseRequest_18_time t_RefuseRequest_14_time))) (let ((.def_1 (RefuseRequest RefuseRequest_18_time))) (let ((.def_2 (not .def_1))) (let ((.def_3 (or .def_2 .def_0))) .def_3)))))))(let ((.def_1 (RefuseRequest t_RefuseRequest_14_time))) (let ((.def_2 (and .def_1 .def_0))) .def_2))))))(let ((.def_26 (exists ((t_RefuseRequest_13_time Int)) (let ((.def_0 (forall ((RefuseRequest_17_time Int)) (let ((.def_0 (<= t_RefuseRequest_13_time RefuseRequest_17_time))) (let ((.def_1 (RefuseRequest RefuseRequest_17_time))) (let ((.def_2 (not .def_1))) (let ((.def_3 (or .def_2 .def_0))) .def_3)))))))(let ((.def_1 (RefuseRequest t_RefuseRequest_13_time))) (let ((.def_2 (and .def_1 .def_0))) .def_2))))))(let ((.def_27 (and .def_26 .def_25))) (let ((.def_28 (forall ((RefuseRequest_16_time Int)) (let ((.def_0 (not true))) (let ((.def_1 (RefuseRequest RefuseRequest_16_time))) (let ((.def_2 (not .def_1))) (let ((.def_3 (or .def_2 .def_0))) .def_3)))))))(let ((.def_29 (or .def_28 .def_27))) (let ((.def_30 (exists ((t_CurtainsOpened_19_time Int)) (let ((.def_0 (forall ((CurtainsOpened_18_time Int)) (let ((.def_0 (<= CurtainsOpened_18_time t_CurtainsOpened_19_time))) (let ((.def_1 (CurtainsOpened CurtainsOpened_18_time))) (let ((.def_2 (not .def_1))) (let ((.def_3 (or .def_2 .def_0))) .def_3)))))))(let ((.def_1 (CurtainsOpened t_CurtainsOpened_19_time))) (let ((.def_2 (and .def_1 .def_0))) .def_2))))))(let ((.def_31 (exists ((t_CurtainsOpened_18_time Int)) (let ((.def_0 (forall ((CurtainsOpened_17_time Int)) (let ((.def_0 (<= t_CurtainsOpened_18_time CurtainsOpened_17_time))) (let ((.def_1 (CurtainsOpened CurtainsOpened_17_time))) (let ((.def_2 (not .def_1))) (let ((.def_3 (or .def_2 .def_0))) .def_3)))))))(let ((.def_1 (CurtainsOpened t_CurtainsOpened_18_time))) (let ((.def_2 (and .def_1 .def_0))) .def_2))))))(let ((.def_32 (and .def_31 .def_30))) (let ((.def_33 (forall ((CurtainsOpened_16_time Int)) (let ((.def_0 (not true))) (let ((.def_1 (CurtainsOpened CurtainsOpened_16_time))) (let ((.def_2 (not .def_1))) (let ((.def_3 (or .def_2 .def_0))) .def_3)))))))(let ((.def_34 (or .def_33 .def_32))) (let ((.def_35 (exists ((t_CurtainOpenRqt_9_time Int)) (let ((.def_0 (forall ((CurtainOpenRqt_23_time Int)) (let ((.def_0 (<= CurtainOpenRqt_23_time t_CurtainOpenRqt_9_time))) (let ((.def_1 (CurtainOpenRqt CurtainOpenRqt_23_time))) (let ((.def_2 (not .def_1))) (let ((.def_3 (or .def_2 .def_0))) .def_3)))))))(let ((.def_1 (CurtainOpenRqt t_CurtainOpenRqt_9_time))) (let ((.def_2 (and .def_1 .def_0))) .def_2))))))(let ((.def_36 (exists ((t_CurtainOpenRqt_8_time Int)) (let ((.def_0 (forall ((CurtainOpenRqt_22_time Int)) (let ((.def_0 (<= t_CurtainOpenRqt_8_time CurtainOpenRqt_22_time))) (let ((.def_1 (CurtainOpenRqt CurtainOpenRqt_22_time))) (let ((.def_2 (not .def_1))) (let ((.def_3 (or .def_2 .def_0))) .def_3)))))))(let ((.def_1 (CurtainOpenRqt t_CurtainOpenRqt_8_time))) (let ((.def_2 (and .def_1 .def_0))) .def_2))))))(let ((.def_37 (and .def_36 .def_35))) (let ((.def_38 (forall ((CurtainOpenRqt_21_time Int)) (let ((.def_0 (not true))) (let ((.def_1 (CurtainOpenRqt CurtainOpenRqt_21_time))) (let ((.def_2 (not .def_1))) (let ((.def_3 (or .def_2 .def_0))) .def_3)))))))(let ((.def_39 (or .def_38 .def_37))) (let ((.def_40 (exists ((t_DressingAbandoned_31_time Int)) (let ((.def_0 (forall ((DressingAbandoned_26_time Int)) (let ((.def_0 (<= DressingAbandoned_26_time t_DressingAbandoned_31_time))) (let ((.def_1 (DressingAbandoned DressingAbandoned_26_time))) (let ((.def_2 (not .def_1))) (let ((.def_3 (or .def_2 .def_0))) .def_3)))))))(let ((.def_1 (DressingAbandoned t_DressingAbandoned_31_time))) (let ((.def_2 (and .def_1 .def_0))) .def_2))))))(let ((.def_41 (exists ((t_DressingAbandoned_30_time Int)) (let ((.def_0 (forall ((DressingAbandoned_25_time Int)) (let ((.def_0 (<= t_DressingAbandoned_30_time DressingAbandoned_25_time))) (let ((.def_1 (DressingAbandoned DressingAbandoned_25_time))) (let ((.def_2 (not .def_1))) (let ((.def_3 (or .def_2 .def_0))) .def_3)))))))(let ((.def_1 (DressingAbandoned t_DressingAbandoned_30_time))) (let ((.def_2 (and .def_1 .def_0))) .def_2))))))(let ((.def_42 (and .def_41 .def_40))) (let ((.def_43 (forall ((DressingAbandoned_24_time Int)) (let ((.def_0 (not true))) (let ((.def_1 (DressingAbandoned DressingAbandoned_24_time))) (let ((.def_2 (not .def_1))) (let ((.def_3 (or .def_2 .def_0))) .def_3)))))))(let ((.def_44 (or .def_43 .def_42))) (let ((.def_45 (exists ((t_DressingComplete_39_time Int)) (let ((.def_0 (forall ((DressingComplete_23_time Int)) (let ((.def_0 (<= DressingComplete_23_time t_DressingComplete_39_time))) (let ((.def_1 (DressingComplete DressingComplete_23_time))) (let ((.def_2 (not .def_1))) (let ((.def_3 (or .def_2 .def_0))) .def_3)))))))(let ((.def_1 (DressingComplete t_DressingComplete_39_time))) (let ((.def_2 (and .def_1 .def_0))) .def_2))))))(let ((.def_46 (exists ((t_DressingComplete_38_time Int)) (let ((.def_0 (forall ((DressingComplete_22_time Int)) (let ((.def_0 (<= t_DressingComplete_38_time DressingComplete_22_time))) (let ((.def_1 (DressingComplete DressingComplete_22_time))) (let ((.def_2 (not .def_1))) (let ((.def_3 (or .def_2 .def_0))) .def_3)))))))(let ((.def_1 (DressingComplete t_DressingComplete_38_time))) (let ((.def_2 (and .def_1 .def_0))) .def_2))))))(let ((.def_47 (and .def_46 .def_45))) (let ((.def_48 (forall ((DressingComplete_21_time Int)) (let ((.def_0 (not true))) (let ((.def_1 (DressingComplete DressingComplete_21_time))) (let ((.def_2 (not .def_1))) (let ((.def_3 (or .def_2 .def_0))) .def_3)))))))(let ((.def_49 (or .def_48 .def_47))) (let ((.def_50 (exists ((t_DressingStarted_27_time Int)) (let ((.def_0 (forall ((DressingStarted_40_time Int)) (let ((.def_0 (<= DressingStarted_40_time t_DressingStarted_27_time))) (let ((.def_1 (DressingStarted DressingStarted_40_time))) (let ((.def_2 (not .def_1))) (let ((.def_3 (or .def_2 .def_0))) .def_3)))))))(let ((.def_1 (DressingStarted t_DressingStarted_27_time))) (let ((.def_2 (and .def_1 .def_0))) .def_2))))))(let ((.def_51 (exists ((t_DressingStarted_26_time Int)) (let ((.def_0 (forall ((DressingStarted_39_time Int)) (let ((.def_0 (<= t_DressingStarted_26_time DressingStarted_39_time))) (let ((.def_1 (DressingStarted DressingStarted_39_time))) (let ((.def_2 (not .def_1))) (let ((.def_3 (or .def_2 .def_0))) .def_3)))))))(let ((.def_1 (DressingStarted t_DressingStarted_26_time))) (let ((.def_2 (and .def_1 .def_0))) .def_2))))))(let ((.def_52 (and .def_51 .def_50))) (let ((.def_53 (forall ((DressingStarted_38_time Int)) (let ((.def_0 (not true))) (let ((.def_1 (DressingStarted DressingStarted_38_time))) (let ((.def_2 (not .def_1))) (let ((.def_3 (or .def_2 .def_0))) .def_3)))))))(let ((.def_54 (or .def_53 .def_52))) (let ((.def_55 (forall ((Measure_12_time Int)(Measure_12_userUnderDressed Bool)(Measure_12_roomTemperature Int)(Measure_12_assentToSupportCalls Bool)(Measure_12_userDistressed Int)) (let ((.def_0 (forall ((Measure_13_time Int)(Measure_13_userUnderDressed Bool)(Measure_13_roomTemperature Int)(Measure_13_assentToSupportCalls Bool)(Measure_13_userDistressed Int)) (let ((.def_0 (= Measure_12_presence Measure_13_presence))) (let ((.def_1 (= Measure_12_userDistressed Measure_13_userDistressed))) (let ((.def_2 (= Measure_12_assentToSupportCalls Measure_13_assentToSupportCalls))) (let ((.def_3 (= Measure_12_roomTemperature Measure_13_roomTemperature))) (let ((.def_4 (= Measure_12_userUnderDressed Measure_13_userUnderDressed))) (let ((.def_5 (= Measure_12_time Measure_13_time))) (let ((.def_6 (and .def_5 .def_4 .def_3 .def_2 .def_1 .def_0))) (let ((.def_7 (not .def_5))) (let ((.def_8 (or .def_7 .def_6))) (let ((.def_9 (Measure Measure_13_time Measure_13_userUnderDressed Measure_13_roomTemperature Measure_13_assentToSupportCalls Measure_13_userDistressed))) (let ((.def_10 (not .def_9))) (let ((.def_11 (or .def_10 .def_8))) .def_11)))))))))))))))(let ((.def_1 (Measure Measure_12_time Measure_12_userUnderDressed Measure_12_roomTemperature Measure_12_assentToSupportCalls Measure_12_userDistressed))) (let ((.def_2 (not .def_1))) (let ((.def_3 (or .def_2 .def_0))) .def_3)))))))(let ((.def_56 (forall ((UserFallen_25_time Int)) (let ((.def_0 (exists ((t_Measure_69_time Int)(t_Measure_69_userUnderDressed Bool)(t_Measure_69_roomTemperature Int)(t_Measure_69_assentToSupportCalls Bool)(t_Measure_69_userDistressed Int)) (let ((.def_0 (forall ((SupportCalled_22_time Int)) (let ((.def_0 (+ UserFallen_25_time 0))) (let ((.def_1 (<= .def_0 SupportCalled_22_time))) (let ((.def_2 (not .def_1))) (let ((.def_3 (+ UserFallen_25_time 120))) (let ((.def_4 (<= SupportCalled_22_time .def_3))) (let ((.def_5 (not .def_4))) (let ((.def_6 (or .def_5 .def_2))) (let ((.def_7 (SupportCalled SupportCalled_22_time))) (let ((.def_8 (not .def_7))) (let ((.def_9 (or .def_8 .def_6))) .def_9)))))))))))))(let ((.def_1 (not t_Measure_69_assentToSupportCalls))) (let ((.def_2 (or .def_1 .def_0))) (let ((.def_3 (= UserFallen_25_time t_Measure_69_time))) (let ((.def_4 (and .def_3 .def_2))) (let ((.def_5 (Measure t_Measure_69_time t_Measure_69_userUnderDressed t_Measure_69_roomTemperature t_Measure_69_assentToSupportCalls t_Measure_69_userDistressed))) (let ((.def_6 (and .def_5 .def_4))) .def_6))))))))))(let ((.def_1 (UserFallen UserFallen_25_time))) (let ((.def_2 (not .def_1))) (let ((.def_3 (or .def_2 .def_0))) .def_3)))))))(let ((.def_57 (forall ((DressingStarted_37_time Int)) (let ((.def_0 (exists ((t_Measure_68_time Int)(t_Measure_68_userUnderDressed Bool)(t_Measure_68_roomTemperature Int)(t_Measure_68_assentToSupportCalls Bool)(t_Measure_68_userDistressed Int)) (let ((.def_0 (exists ((t_DressingComplete_37_time Int)) (let ((.def_0 (+ DressingStarted_37_time 0))) (let ((.def_1 (<= .def_0 t_DressingComplete_37_time))) (let ((.def_2 (+ DressingStarted_37_time 60))) (let ((.def_3 (<= t_DressingComplete_37_time .def_2))) (let ((.def_4 (and .def_3 .def_1))) (let ((.def_5 (DressingComplete t_DressingComplete_37_time))) (let ((.def_6 (and .def_5 .def_4))) .def_6))))))))))(let ((.def_1 (exists ((t_DressingAbandoned_29_time Int)) (let ((.def_0 (+ DressingStarted_37_time 0))) (let ((.def_1 (<= .def_0 t_DressingAbandoned_29_time))) (let ((.def_2 (+ DressingStarted_37_time 120))) (let ((.def_3 (<= t_DressingAbandoned_29_time .def_2))) (let ((.def_4 (and .def_3 .def_1))) (let ((.def_5 (DressingAbandoned t_DressingAbandoned_29_time))) (let ((.def_6 (and .def_5 .def_4))) .def_6))))))))))(let ((.def_2 (or .def_1 .def_0))) (let ((.def_3 (not t_Measure_68_userUnderDressed))) (let ((.def_4 (< t_Measure_68_roomTemperature 16))) (let ((.def_5 (not .def_4))) (let ((.def_6 (and .def_5 .def_3))) (let ((.def_7 (or .def_6 .def_2))) (let ((.def_8 (= DressingStarted_37_time t_Measure_68_time))) (let ((.def_9 (and .def_8 .def_7))) (let ((.def_10 (Measure t_Measure_68_time t_Measure_68_userUnderDressed t_Measure_68_roomTemperature t_Measure_68_assentToSupportCalls t_Measure_68_userDistressed))) (let ((.def_11 (and .def_10 .def_9))) .def_11)))))))))))))))(let ((.def_1 (DressingStarted DressingStarted_37_time))) (let ((.def_2 (not .def_1))) (let ((.def_3 (or .def_2 .def_0))) .def_3)))))))(let ((.def_58 (forall ((DressingAbandoned_23_time Int)) (let ((.def_0 (exists ((t_Measure_66_time Int)(t_Measure_66_userUnderDressed Bool)(t_Measure_66_roomTemperature Int)(t_Measure_66_assentToSupportCalls Bool)(t_Measure_66_userDistressed Int)) (let ((.def_0 (exists ((t_Measure_67_time Int)(t_Measure_67_userUnderDressed Bool)(t_Measure_67_roomTemperature Int)(t_Measure_67_assentToSupportCalls Bool)(t_Measure_67_userDistressed Int)) (let ((.def_0 (exists ((t_SupportCalled_30_time Int)) (let ((.def_0 (+ t_Measure_67_time 0))) (let ((.def_1 (<= .def_0 t_SupportCalled_30_time))) (let ((.def_2 (<= t_SupportCalled_30_time .def_0))) (let ((.def_3 (and .def_2 .def_1))) (let ((.def_4 (SupportCalled t_SupportCalled_30_time))) (let ((.def_5 (and .def_4 .def_3))) .def_5)))))))))(let ((.def_1 (not true))) (let ((.def_2 (not t_Measure_67_assentToSupportCalls))) (let ((.def_3 (or .def_1 .def_2))) (let ((.def_4 (or .def_3 .def_1))) (let ((.def_5 (or .def_4 .def_0))) (let ((.def_6 (and true .def_5))) (let ((.def_7 (+ t_Measure_66_time 1800))) (let ((.def_8 (= .def_7 t_Measure_67_time))) (let ((.def_9 (and .def_8 .def_6))) (let ((.def_10 (Measure t_Measure_67_time t_Measure_67_userUnderDressed t_Measure_67_roomTemperature t_Measure_67_assentToSupportCalls t_Measure_67_userDistressed))) (let ((.def_11 (and .def_10 .def_9))) .def_11)))))))))))))))(let ((.def_1 (exists ((t_RetryAgreed_13_time Int)) (let ((.def_0 (+ DressingAbandoned_23_time 0))) (let ((.def_1 (<= .def_0 t_RetryAgreed_13_time))) (let ((.def_2 (+ DressingAbandoned_23_time 1800))) (let ((.def_3 (<= t_RetryAgreed_13_time .def_2))) (let ((.def_4 (and .def_3 .def_1))) (let ((.def_5 (RetryAgreed t_RetryAgreed_13_time))) (let ((.def_6 (and .def_5 .def_4))) .def_6))))))))))(let ((.def_2 (or .def_1 .def_0))) (let ((.def_3 (= DressingAbandoned_23_time t_Measure_66_time))) (let ((.def_4 (and .def_3 .def_2))) (let ((.def_5 (Measure t_Measure_66_time t_Measure_66_userUnderDressed t_Measure_66_roomTemperature t_Measure_66_assentToSupportCalls t_Measure_66_userDistressed))) (let ((.def_6 (and .def_5 .def_4))) .def_6))))))))))(let ((.def_1 (DressingAbandoned DressingAbandoned_23_time))) (let ((.def_2 (not .def_1))) (let ((.def_3 (or .def_2 .def_0))) .def_3)))))))(let ((.def_59 (forall ((UserFallen_24_time Int)) (let ((.def_0 (exists ((t_Measure_65_time Int)(t_Measure_65_userUnderDressed Bool)(t_Measure_65_roomTemperature Int)(t_Measure_65_assentToSupportCalls Bool)(t_Measure_65_userDistressed Int)) (let ((.def_0 (exists ((t_SupportCalled_29_time Int)) (let ((.def_0 (+ UserFallen_24_time 0))) (let ((.def_1 (<= .def_0 t_SupportCalled_29_time))) (let ((.def_2 (<= t_SupportCalled_29_time .def_0))) (let ((.def_3 (and .def_2 .def_1))) (let ((.def_4 (SupportCalled t_SupportCalled_29_time))) (let ((.def_5 (and .def_4 .def_3))) .def_5)))))))))(let ((.def_1 (not true))) (let ((.def_2 (not t_Measure_65_assentToSupportCalls))) (let ((.def_3 (or .def_1 .def_2))) (let ((.def_4 (or .def_3 .def_1))) (let ((.def_5 (or .def_4 .def_0))) (let ((.def_6 (and true .def_5))) (let ((.def_7 (= UserFallen_24_time t_Measure_65_time))) (let ((.def_8 (and .def_7 .def_6))) (let ((.def_9 (Measure t_Measure_65_time t_Measure_65_userUnderDressed t_Measure_65_roomTemperature t_Measure_65_assentToSupportCalls t_Measure_65_userDistressed))) (let ((.def_10 (and .def_9 .def_8))) .def_10))))))))))))))(let ((.def_1 (UserFallen UserFallen_24_time))) (let ((.def_2 (not .def_1))) (let ((.def_3 (or .def_2 .def_0))) .def_3)))))))(let ((.def_60 (forall ((CurtainOpenRqt_20_time Int)) (let ((.def_0 (exists ((t_Measure_64_time Int)(t_Measure_64_userUnderDressed Bool)(t_Measure_64_roomTemperature Int)(t_Measure_64_assentToSupportCalls Bool)(t_Measure_64_userDistressed Int)) (let ((.def_0 (exists ((t_CurtainsOpened_17_time Int)) (let ((.def_0 (+ CurtainOpenRqt_20_time 0))) (let ((.def_1 (<= .def_0 t_CurtainsOpened_17_time))) (let ((.def_2 (+ CurtainOpenRqt_20_time 60))) (let ((.def_3 (<= t_CurtainsOpened_17_time .def_2))) (let ((.def_4 (and .def_3 .def_1))) (let ((.def_5 (CurtainsOpened t_CurtainsOpened_17_time))) (let ((.def_6 (and .def_5 .def_4))) .def_6))))))))))(let ((.def_1 (not true))) (let ((.def_2 (< 2 t_Measure_64_userDistressed))) (let ((.def_3 (or .def_1 .def_2))) (let ((.def_4 (or .def_3 t_Measure_64_userUnderDressed))) (let ((.def_5 (or .def_4 .def_1))) (let ((.def_6 (or .def_5 .def_0))) (let ((.def_7 (exists ((t_RefuseRequest_12_time Int)) (let ((.def_0 (+ CurtainOpenRqt_20_time 0))) (let ((.def_1 (<= .def_0 t_RefuseRequest_12_time))) (let ((.def_2 (+ CurtainOpenRqt_20_time 30))) (let ((.def_3 (<= t_RefuseRequest_12_time .def_2))) (let ((.def_4 (and .def_3 .def_1))) (let ((.def_5 (RefuseRequest t_RefuseRequest_12_time))) (let ((.def_6 (and .def_5 .def_4))) .def_6))))))))))(let ((.def_8 (not t_Measure_64_userUnderDressed))) (let ((.def_9 (or .def_3 .def_8))) (let ((.def_10 (or .def_9 .def_7))) (let ((.def_11 (exists ((t_CurtainsOpened_16_time Int)) (let ((.def_0 (+ CurtainOpenRqt_20_time 0))) (let ((.def_1 (<= .def_0 t_CurtainsOpened_16_time))) (let ((.def_2 (+ CurtainOpenRqt_20_time 60))) (let ((.def_3 (<= t_CurtainsOpened_16_time .def_2))) (let ((.def_4 (and .def_3 .def_1))) (let ((.def_5 (CurtainsOpened t_CurtainsOpened_16_time))) (let ((.def_6 (and .def_5 .def_4))) .def_6))))))))))(let ((.def_12 (not .def_2))) (let ((.def_13 (or .def_1 .def_12))) (let ((.def_14 (or .def_13 .def_11))) (let ((.def_15 (and .def_14 .def_10 .def_6))) (let ((.def_16 (= CurtainOpenRqt_20_time t_Measure_64_time))) (let ((.def_17 (and .def_16 .def_15))) (let ((.def_18 (Measure t_Measure_64_time t_Measure_64_userUnderDressed t_Measure_64_roomTemperature t_Measure_64_assentToSupportCalls t_Measure_64_userDistressed))) (let ((.def_19 (and .def_18 .def_17))) .def_19)))))))))))))))))))))))(let ((.def_1 (CurtainOpenRqt CurtainOpenRqt_20_time))) (let ((.def_2 (not .def_1))) (let ((.def_3 (or .def_2 .def_0))) .def_3)))))))(let ((.def_61 (forall ((RetryAgreed_29_time Int)) (let ((.def_0 (exists ((t_Measure_63_time Int)(t_Measure_63_userUnderDressed Bool)(t_Measure_63_roomTemperature Int)(t_Measure_63_assentToSupportCalls Bool)(t_Measure_63_userDistressed Int)) (let ((.def_0 (exists ((t_DressingAbandoned_28_time Int)) (let ((.def_0 (<= RetryAgreed_29_time t_DressingAbandoned_28_time))) (let ((.def_1 (DressingAbandoned t_DressingAbandoned_28_time))) (let ((.def_2 (and .def_1 .def_0))) .def_2))))))(let ((.def_1 (exists ((t_DressingComplete_36_time Int)) (let ((.def_0 (<= RetryAgreed_29_time t_DressingComplete_36_time))) (let ((.def_1 (DressingComplete t_DressingComplete_36_time))) (let ((.def_2 (and .def_1 .def_0))) .def_2))))))(let ((.def_2 (or .def_1 .def_0))) (let ((.def_3 (= RetryAgreed_29_time t_Measure_63_time))) (let ((.def_4 (and .def_3 .def_2))) (let ((.def_5 (Measure t_Measure_63_time t_Measure_63_userUnderDressed t_Measure_63_roomTemperature t_Measure_63_assentToSupportCalls t_Measure_63_userDistressed))) (let ((.def_6 (and .def_5 .def_4))) .def_6))))))))))(let ((.def_1 (RetryAgreed RetryAgreed_29_time))) (let ((.def_2 (not .def_1))) (let ((.def_3 (or .def_2 .def_0))) .def_3)))))))(let ((.def_62 (forall ((RetryAgreed_28_time Int)) (let ((.def_0 (exists ((t_Measure_61_time Int)(t_Measure_61_userUnderDressed Bool)(t_Measure_61_roomTemperature Int)(t_Measure_61_assentToSupportCalls Bool)(t_Measure_61_userDistressed Int)) (let ((.def_0 (exists ((t_DressingStarted_25_time Int)) (let ((.def_0 (<= RetryAgreed_28_time t_DressingStarted_25_time))) (let ((.def_1 (DressingStarted t_DressingStarted_25_time))) (let ((.def_2 (and .def_1 .def_0))) .def_2))))))(let ((.def_1 (not true))) (let ((.def_2 (= t_Measure_61_userDistressed 3))) (let ((.def_3 (or .def_1 .def_2))) (let ((.def_4 (or .def_3 .def_1))) (let ((.def_5 (or .def_4 .def_0))) (let ((.def_6 (exists ((t_Measure_62_time Int)(t_Measure_62_userUnderDressed Bool)(t_Measure_62_roomTemperature Int)(t_Measure_62_assentToSupportCalls Bool)(t_Measure_62_userDistressed Int)) (let ((.def_0 (exists ((t_SupportCalled_28_time Int)) (let ((.def_0 (+ t_Measure_62_time 0))) (let ((.def_1 (<= .def_0 t_SupportCalled_28_time))) (let ((.def_2 (+ t_Measure_62_time 30))) (let ((.def_3 (<= t_SupportCalled_28_time .def_2))) (let ((.def_4 (and .def_3 .def_1))) (let ((.def_5 (SupportCalled t_SupportCalled_28_time))) (let ((.def_6 (and .def_5 .def_4))) .def_6))))))))))(let ((.def_1 (+ t_Measure_61_time 30))) (let ((.def_2 (= .def_1 t_Measure_62_time))) (let ((.def_3 (and .def_2 .def_0))) (let ((.def_4 (Measure t_Measure_62_time t_Measure_62_userUnderDressed t_Measure_62_roomTemperature t_Measure_62_assentToSupportCalls t_Measure_62_userDistressed))) (let ((.def_5 (and .def_4 .def_3))) .def_5)))))))))(let ((.def_7 (exists ((t_DressingStarted_24_time Int)) (let ((.def_0 (+ RetryAgreed_28_time 0))) (let ((.def_1 (<= .def_0 t_DressingStarted_24_time))) (let ((.def_2 (+ RetryAgreed_28_time 30))) (let ((.def_3 (<= t_DressingStarted_24_time .def_2))) (let ((.def_4 (and .def_3 .def_1))) (let ((.def_5 (DressingStarted t_DressingStarted_24_time))) (let ((.def_6 (and .def_5 .def_4))) .def_6))))))))))(let ((.def_8 (or .def_7 .def_6))) (let ((.def_9 (not .def_2))) (let ((.def_10 (or .def_1 .def_9))) (let ((.def_11 (or .def_10 .def_8))) (let ((.def_12 (and .def_11 .def_5))) (let ((.def_13 (= RetryAgreed_28_time t_Measure_61_time))) (let ((.def_14 (and .def_13 .def_12))) (let ((.def_15 (Measure t_Measure_61_time t_Measure_61_userUnderDressed t_Measure_61_roomTemperature t_Measure_61_assentToSupportCalls t_Measure_61_userDistressed))) (let ((.def_16 (and .def_15 .def_14))) .def_16))))))))))))))))))))(let ((.def_1 (RetryAgreed RetryAgreed_28_time))) (let ((.def_2 (not .def_1))) (let ((.def_3 (or .def_2 .def_0))) .def_3)))))))(let ((.def_63 (forall ((DressingStarted_36_time Int)) (let ((.def_0 (exists ((t_Measure_60_time Int)(t_Measure_60_userUnderDressed Bool)(t_Measure_60_roomTemperature Int)(t_Measure_60_assentToSupportCalls Bool)(t_Measure_60_userDistressed Int)) (let ((.def_0 (exists ((t_SupportCalled_27_time Int)) (let ((.def_0 (+ DressingStarted_36_time 0))) (let ((.def_1 (<= .def_0 t_SupportCalled_27_time))) (let ((.def_2 (<= t_SupportCalled_27_time .def_0))) (let ((.def_3 (and .def_2 .def_1))) (let ((.def_4 (SupportCalled t_SupportCalled_27_time))) (let ((.def_5 (and .def_4 .def_3))) .def_5)))))))))(let ((.def_1 (not true))) (let ((.def_2 (not t_Measure_60_assentToSupportCalls))) (let ((.def_3 (or .def_1 .def_2))) (let ((.def_4 (or .def_3 .def_1))) (let ((.def_5 (or .def_4 .def_0))) (let ((.def_6 (and true .def_5))) (let ((.def_7 (< 2 t_Measure_60_userDistressed))) (let ((.def_8 (not .def_7))) (let ((.def_9 (or .def_8 .def_6))) (let ((.def_10 (= DressingStarted_36_time t_Measure_60_time))) (let ((.def_11 (and .def_10 .def_9))) (let ((.def_12 (Measure t_Measure_60_time t_Measure_60_userUnderDressed t_Measure_60_roomTemperature t_Measure_60_assentToSupportCalls t_Measure_60_userDistressed))) (let ((.def_13 (and .def_12 .def_11))) .def_13)))))))))))))))))(let ((.def_1 (DressingStarted DressingStarted_36_time))) (let ((.def_2 (not .def_1))) (let ((.def_3 (or .def_2 .def_0))) .def_3)))))))(let ((.def_64 (forall ((DressingStarted_35_time Int)) (let ((.def_0 (exists ((t_Measure_59_time Int)(t_Measure_59_userUnderDressed Bool)(t_Measure_59_roomTemperature Int)(t_Measure_59_assentToSupportCalls Bool)(t_Measure_59_userDistressed Int)) (let ((.def_0 (exists ((t_DressingAbandoned_27_time Int)) (let ((.def_0 (+ DressingStarted_35_time 0))) (let ((.def_1 (<= .def_0 t_DressingAbandoned_27_time))) (let ((.def_2 (<= t_DressingAbandoned_27_time .def_0))) (let ((.def_3 (and .def_2 .def_1))) (let ((.def_4 (DressingAbandoned t_DressingAbandoned_27_time))) (let ((.def_5 (and .def_4 .def_3))) .def_5)))))))))(let ((.def_1 (< 2 t_Measure_59_userDistressed))) (let ((.def_2 (not .def_1))) (let ((.def_3 (or .def_2 .def_0))) (let ((.def_4 (= DressingStarted_35_time t_Measure_59_time))) (let ((.def_5 (and .def_4 .def_3))) (let ((.def_6 (Measure t_Measure_59_time t_Measure_59_userUnderDressed t_Measure_59_roomTemperature t_Measure_59_assentToSupportCalls t_Measure_59_userDistressed))) (let ((.def_7 (and .def_6 .def_5))) .def_7)))))))))))(let ((.def_1 (DressingStarted DressingStarted_35_time))) (let ((.def_2 (not .def_1))) (let ((.def_3 (or .def_2 .def_0))) .def_3)))))))(let ((.def_65 (forall ((DressingStarted_34_time Int)) (let ((.def_0 (exists ((t_Measure_58_time Int)(t_Measure_58_userUnderDressed Bool)(t_Measure_58_roomTemperature Int)(t_Measure_58_assentToSupportCalls Bool)(t_Measure_58_userDistressed Int)) (let ((.def_0 (exists ((t_DressingComplete_35_time Int)) (let ((.def_0 (+ DressingStarted_34_time 0))) (let ((.def_1 (<= .def_0 t_DressingComplete_35_time))) (let ((.def_2 (+ DressingStarted_34_time 120))) (let ((.def_3 (<= t_DressingComplete_35_time .def_2))) (let ((.def_4 (and .def_3 .def_1))) (let ((.def_5 (DressingComplete t_DressingComplete_35_time))) (let ((.def_6 (and .def_5 .def_4))) .def_6))))))))))(let ((.def_1 (not true))) (let ((.def_2 (<= t_Measure_58_roomTemperature 22))) (let ((.def_3 (<= t_Measure_58_roomTemperature 11))) (let ((.def_4 (and .def_3 t_Measure_58_userUnderDressed))) (let ((.def_5 (or .def_1 .def_4))) (let ((.def_6 (or .def_5 .def_2))) (let ((.def_7 (or .def_6 .def_1))) (let ((.def_8 (or .def_7 .def_0))) (let ((.def_9 (exists ((t_DressingComplete_34_time Int)) (let ((.def_0 (+ DressingStarted_34_time 0))) (let ((.def_1 (<= .def_0 t_DressingComplete_34_time))) (let ((.def_2 (- 22 t_Measure_58_roomTemperature))) (let ((.def_3 (* .def_2 15))) (let ((.def_4 (- 120 .def_3))) (let ((.def_5 (* .def_4 1))) (let ((.def_6 (+ DressingStarted_34_time .def_5))) (let ((.def_7 (<= t_DressingComplete_34_time .def_6))) (let ((.def_8 (and .def_7 .def_1))) (let ((.def_9 (DressingComplete t_DressingComplete_34_time))) (let ((.def_10 (and .def_9 .def_8))) .def_10))))))))))))))(let ((.def_10 (not .def_2))) (let ((.def_11 (or .def_5 .def_10))) (let ((.def_12 (or .def_11 .def_9))) (let ((.def_13 (exists ((t_SupportCalled_26_time Int)) (let ((.def_0 (+ DressingStarted_34_time 0))) (let ((.def_1 (<= .def_0 t_SupportCalled_26_time))) (let ((.def_2 (<= t_SupportCalled_26_time .def_0))) (let ((.def_3 (and .def_2 .def_1))) (let ((.def_4 (SupportCalled t_SupportCalled_26_time))) (let ((.def_5 (and .def_4 .def_3))) .def_5)))))))))(let ((.def_14 (not t_Measure_58_assentToSupportCalls))) (let ((.def_15 (or .def_1 .def_14))) (let ((.def_16 (or .def_15 .def_1))) (let ((.def_17 (or .def_16 .def_13))) (let ((.def_18 (and true .def_17))) (let ((.def_19 (not t_Measure_58_userUnderDressed))) (let ((.def_20 (not .def_3))) (let ((.def_21 (or .def_20 .def_19))) (let ((.def_22 (or .def_1 .def_21))) (let ((.def_23 (or .def_22 .def_18))) (let ((.def_24 (and .def_23 .def_12 .def_8))) (let ((.def_25 (exists ((t_DressingAbandoned_26_time Int)) (let ((.def_0 (+ DressingStarted_34_time 0))) (let ((.def_1 (<= .def_0 t_DressingAbandoned_26_time))) (let ((.def_2 (+ DressingStarted_34_time 120))) (let ((.def_3 (<= t_DressingAbandoned_26_time .def_2))) (let ((.def_4 (and .def_3 .def_1))) (let ((.def_5 (DressingAbandoned t_DressingAbandoned_26_time))) (let ((.def_6 (and .def_5 .def_4))) .def_6))))))))))(let ((.def_26 (or .def_25 .def_24))) (let ((.def_27 (= DressingStarted_34_time t_Measure_58_time))) (let ((.def_28 (and .def_27 .def_26))) (let ((.def_29 (Measure t_Measure_58_time t_Measure_58_userUnderDressed t_Measure_58_roomTemperature t_Measure_58_assentToSupportCalls t_Measure_58_userDistressed))) (let ((.def_30 (and .def_29 .def_28))) .def_30))))))))))))))))))))))))))))))))))(let ((.def_1 (DressingStarted DressingStarted_34_time))) (let ((.def_2 (not .def_1))) (let ((.def_3 (or .def_2 .def_0))) .def_3)))))))(let ((.def_66 (forall ((DressingStarted_33_time Int)) (let ((.def_0 (exists ((t_Measure_57_time Int)(t_Measure_57_userUnderDressed Bool)(t_Measure_57_roomTemperature Int)(t_Measure_57_assentToSupportCalls Bool)(t_Measure_57_userDistressed Int)) (let ((.def_0 (exists ((t_DressingComplete_33_time Int)) (let ((.def_0 (+ DressingStarted_33_time 0))) (let ((.def_1 (<= .def_0 t_DressingComplete_33_time))) (let ((.def_2 (+ DressingStarted_33_time 120))) (let ((.def_3 (<= t_DressingComplete_33_time .def_2))) (let ((.def_4 (and .def_3 .def_1))) (let ((.def_5 (DressingComplete t_DressingComplete_33_time))) (let ((.def_6 (and .def_5 .def_4))) .def_6))))))))))(let ((.def_1 (not true))) (let ((.def_2 (< t_Measure_57_roomTemperature 19))) (let ((.def_3 (< t_Measure_57_roomTemperature 17))) (let ((.def_4 (or .def_1 .def_3))) (let ((.def_5 (or .def_4 .def_2))) (let ((.def_6 (or .def_5 .def_1))) (let ((.def_7 (or .def_6 .def_0))) (let ((.def_8 (exists ((t_DressingComplete_32_time Int)) (let ((.def_0 (+ DressingStarted_33_time 0))) (let ((.def_1 (<= .def_0 t_DressingComplete_32_time))) (let ((.def_2 (+ DressingStarted_33_time 90))) (let ((.def_3 (<= t_DressingComplete_32_time .def_2))) (let ((.def_4 (and .def_3 .def_1))) (let ((.def_5 (DressingComplete t_DressingComplete_32_time))) (let ((.def_6 (and .def_5 .def_4))) .def_6))))))))))(let ((.def_9 (not .def_2))) (let ((.def_10 (or .def_4 .def_9))) (let ((.def_11 (or .def_10 .def_8))) (let ((.def_12 (exists ((t_DressingComplete_31_time Int)) (let ((.def_0 (+ DressingStarted_33_time 0))) (let ((.def_1 (<= .def_0 t_DressingComplete_31_time))) (let ((.def_2 (+ DressingStarted_33_time 60))) (let ((.def_3 (<= t_DressingComplete_31_time .def_2))) (let ((.def_4 (and .def_3 .def_1))) (let ((.def_5 (DressingComplete t_DressingComplete_31_time))) (let ((.def_6 (and .def_5 .def_4))) .def_6))))))))))(let ((.def_13 (not .def_3))) (let ((.def_14 (or .def_1 .def_13))) (let ((.def_15 (or .def_14 .def_12))) (let ((.def_16 (and .def_15 .def_11 .def_7))) (let ((.def_17 (exists ((t_DressingAbandoned_25_time Int)) (let ((.def_0 (+ DressingStarted_33_time 0))) (let ((.def_1 (<= .def_0 t_DressingAbandoned_25_time))) (let ((.def_2 (+ DressingStarted_33_time 120))) (let ((.def_3 (<= t_DressingAbandoned_25_time .def_2))) (let ((.def_4 (and .def_3 .def_1))) (let ((.def_5 (DressingAbandoned t_DressingAbandoned_25_time))) (let ((.def_6 (and .def_5 .def_4))) .def_6))))))))))(let ((.def_18 (or .def_17 .def_16))) (let ((.def_19 (= DressingStarted_33_time t_Measure_57_time))) (let ((.def_20 (and .def_19 .def_18))) (let ((.def_21 (Measure t_Measure_57_time t_Measure_57_userUnderDressed t_Measure_57_roomTemperature t_Measure_57_assentToSupportCalls t_Measure_57_userDistressed))) (let ((.def_22 (and .def_21 .def_20))) .def_22))))))))))))))))))))))))))(let ((.def_1 (DressingStarted DressingStarted_33_time))) (let ((.def_2 (not .def_1))) (let ((.def_3 (or .def_2 .def_0))) .def_3)))))))(let ((.def_67 (exists ((t_RetryAgreed_12_time Int)) (let ((.def_0 (exists ((t_Measure_56_time Int)(t_Measure_56_userUnderDressed Bool)(t_Measure_56_roomTemperature Int)(t_Measure_56_assentToSupportCalls Bool)(t_Measure_56_userDistressed Int)) (let ((.def_0 (forall ((DressingStarted_32_time Int)) (let ((.def_0 (+ t_RetryAgreed_12_time 1))) (let ((.def_1 (<= .def_0 DressingStarted_32_time))) (let ((.def_2 (not .def_1))) (let ((.def_3 (+ t_RetryAgreed_12_time 30))) (let ((.def_4 (<= DressingStarted_32_time .def_3))) (let ((.def_5 (not .def_4))) (let ((.def_6 (or .def_5 .def_2))) (let ((.def_7 (DressingStarted DressingStarted_32_time))) (let ((.def_8 (not .def_7))) (let ((.def_9 (or .def_8 .def_6))) .def_9)))))))))))))(let ((.def_1 (= t_RetryAgreed_12_time t_Measure_56_time))) (let ((.def_2 (and .def_1 .def_0))) (let ((.def_3 (Measure t_Measure_56_time t_Measure_56_userUnderDressed t_Measure_56_roomTemperature t_Measure_56_assentToSupportCalls t_Measure_56_userDistressed))) (let ((.def_4 (and .def_3 .def_2))) .def_4))))))))(let ((.def_1 (RetryAgreed t_RetryAgreed_12_time))) (let ((.def_2 (and .def_1 .def_0))) .def_2))))))(let ((.def_68 (and .def_67 .def_66 .def_65 .def_64 .def_63 .def_62 .def_61 .def_60 .def_59 .def_58 .def_57 .def_56 .def_55 .def_54 .def_49 .def_44 .def_39 .def_34 .def_29 .def_24 .def_19 .def_14 .def_9 .def_8 .def_7 .def_6 .def_5 .def_4 .def_3 .def_2 .def_1 .def_0))) .def_68))))))))))))))))))))))))))))))))))))))))))))))))))))))))))))))))))))))
(check-sat)
